249491
528836
885544
49686
712881
469895
867559
465558
380205
957411
60141
394395
271848
231514
642034
912183
454697
791309
94563
533446
315213
654862
387643
940006
806
64274
657855
411000
869573
143110
384233
719218
125672
297556
312230
930961
973452
508081
524241
807790
971223
721385
492046
13064
921777
64299
718015
418372
655253
758434
766275
941580
453032
662695
975965
944542
761256
457314
200373
924549
204204
106380
634211
594647
606436
92924
475550
479344
853090
980111
131058
829566
379411
116513
366140
519357
712695
374471
198171
400363
398819
796800
600101
273507
314186
722088
166392
196089
807951
115709
824793
710953
397421
563200
671560
413233
620325
780679
252629
483827
